data/solutions/recovery/wellformed/moderate/flexible/wellformed_moderate_instance76/9.sol
Elapsed time: 0.03
Upper bound: 1890.0
Planning weighted value: 118626.0
C[0]=1890.0
C[1]=1875.0
C[2]=1872.0
C[3]=1868.0
C[4]=1776.0
C[5]=0.0
y[0]=3
y[1]=0
y[2]=3
y[3]=1
y[4]=0
y[5]=2
y[6]=0
y[7]=0
y[8]=4
y[9]=1
y[10]=1
y[11]=2
y[12]=1
y[13]=2
y[14]=0
y[15]=1
y[16]=4
y[17]=2
y[18]=0
y[19]=3
