data/solutions/recovery/wellformed/moderate/flexible/wellformed_moderate_instance76/9.log

Log started (V12.6.3.0) Fri Apr 20 20:56:40 2018

New value for default parallel thread count: 1

Problem '/tmp/tmpJo0PQN.pyomo.lp' read.
Read time = 0.00 sec. (0.03 ticks)

Problem name         : /tmp/tmpJo0PQN.pyomo.lp
Objective sense      : Minimize
Variables            :     128  [Nneg: 1,  Binary: 120,  General Integer: 7]
Objective nonzeros   :       1
Linear constraints   :      54  [Less: 26,  Equal: 28]
  Nonzeros           :    1973
  RHS nonzeros       :      41

Variables            : Min LB: 0.000000         Max UB: 1.000000       
Objective nonzeros   : Min   : 1.000000         Max   : 1.000000       
Linear constraints   :
  Nonzeros           : Min   : 1.000000         Max   : 971.0000       
  RHS nonzeros       : Min   : 1.000000         Max   : 2.000000       
Tried aggregator 2 times.
MIP Presolve eliminated 23 rows and 26 columns.
Aggregator did 6 substitutions.
Reduced MIP has 25 rows, 96 columns, and 259 nonzeros.
Reduced MIP has 95 binaries, 1 generals, 0 SOSs, and 0 indicators.
Presolve time = 0.00 sec. (0.74 ticks)
Found incumbent of value 9281.000000 after 0.00 sec. (0.91 ticks)
Probing time = 0.00 sec. (0.08 ticks)
Cover probing fixed 0 vars, tightened 3 bounds.
Tried aggregator 1 time.
Reduced MIP has 25 rows, 96 columns, and 259 nonzeros.
Reduced MIP has 95 binaries, 1 generals, 0 SOSs, and 0 indicators.
Presolve time = 0.00 sec. (0.17 ticks)
Probing time = 0.00 sec. (0.06 ticks)
Clique table members: 19.
MIP emphasis: balance optimality and feasibility.
MIP search method: dynamic search.
Parallel mode: none, using 1 thread.
Root relaxation solution time = 0.00 sec. (0.09 ticks)

        Nodes                                         Cuts/
   Node  Left     Objective  IInf  Best Integer    Best Bound    ItCnt     Gap

*     0+    0                         9281.0000      971.0000            89.54%
      0     0     1856.2000     9     9281.0000     1856.2000       13   80.00%
*     0+    0                         2203.0000     1856.2000            15.74%
      0     0     1857.0000    17     2203.0000       Cuts: 6       37   15.71%
      0     0     1858.3563    19     2203.0000      Cuts: 11       80   15.64%
*     0+    0                         2040.0000     1858.3563             8.90%
      0     0     1859.4663    27     2040.0000      Cuts: 10      108    8.85%
      0     0     1861.6513    25     2040.0000      Cuts: 12      133    8.74%
*     0+    0                         1923.0000     1861.6513             3.19%
      0     0     1865.2384    28     1923.0000       Cuts: 8      168    3.00%
      0     0     1866.0024    27     1923.0000      Cuts: 10      209    2.96%
*     0+    0                         1898.0000     1866.0024             1.69%
      0     0     1866.8165    31     1898.0000       Cuts: 7      231    1.64%
      0     0     1867.8387    30     1898.0000       Cuts: 5      245    1.59%
      0     0     1871.0404    29     1898.0000    MIRcuts: 9      262    1.42%
      0     0     1871.6693    29     1898.0000       Cuts: 4      271    1.39%
      0     0     1871.8722    29     1898.0000       Cuts: 5      275    1.38%
      0     0     1872.4634    27     1898.0000       Cuts: 6      290    1.35%

Repeating presolve.
Tried aggregator 2 times.
MIP Presolve eliminated 9 rows and 59 columns.
Aggregator did 3 substitutions.
Reduced MIP has 13 rows, 34 columns, and 88 nonzeros.
Reduced MIP has 33 binaries, 1 generals, 0 SOSs, and 0 indicators.
Presolve time = 0.00 sec. (0.11 ticks)
Probing fixed 3 vars, tightened 0 bounds.
Probing time = 0.00 sec. (0.04 ticks)
Tried aggregator 1 time.
MIP Presolve eliminated 0 rows and 3 columns.
Reduced MIP has 13 rows, 31 columns, and 79 nonzeros.
Reduced MIP has 30 binaries, 1 generals, 0 SOSs, and 0 indicators.
Presolve time = 0.00 sec. (0.05 ticks)
Probing time = 0.00 sec. (0.03 ticks)
Tried aggregator 1 time.
Reduced MIP has 13 rows, 31 columns, and 79 nonzeros.
Reduced MIP has 30 binaries, 1 generals, 0 SOSs, and 0 indicators.
Presolve time = 0.00 sec. (0.05 ticks)
Represolve time = 0.00 sec. (0.57 ticks)
Probing time = 0.00 sec. (0.03 ticks)
Clique table members: 59.
MIP emphasis: balance optimality and feasibility.
MIP search method: dynamic search.
Parallel mode: none, using 1 thread.
Root relaxation solution time = 0.00 sec. (0.20 ticks)

        Nodes                                         Cuts/
   Node  Left     Objective  IInf  Best Integer    Best Bound    ItCnt     Gap

*     0+    0                         1898.0000     1872.4634             1.35%
      0     0     1876.5250    18     1898.0000     1876.5250      333    1.13%
      0     0     1877.1627    20     1898.0000       Cuts: 7      369    1.10%
*     0+    0                         1890.0000     1877.1627             0.68%
      0     0     1878.0000    18     1890.0000       Cuts: 4      386    0.63%
      0     0     1878.0000    18     1890.0000       Cuts: 8      417    0.63%
      0     0     1878.4406    20     1890.0000       Cuts: 9      436    0.61%
      0     0     1879.9559    21     1890.0000       Cuts: 5      445    0.53%
      0     0     1888.6301    20     1890.0000       Cuts: 3      452    0.07%
      0     0        cutoff           1890.0000                    454    0.00%
Elapsed time = 0.02 sec. (14.14 ticks, tree = 0.01 MB, solutions = 6)

GUB cover cuts applied:  1
Cover cuts applied:  2
Mixed integer rounding cuts applied:  12
Zero-half cuts applied:  3
Gomory fractional cuts applied:  1

Root node processing (before b&c):
  Real time             =    0.02 sec. (14.15 ticks)
Sequential b&c:
  Real time             =    0.00 sec. (0.00 ticks)
                          ------------
Total (root+branch&cut) =    0.02 sec. (14.15 ticks)

Solution pool: 6 solutions saved.

MIP - Integer optimal solution:  Objective =  1.8900000000e+03
Solution time =    0.02 sec.  Iterations = 454  Nodes = 0
Deterministic time = 14.15 ticks  (621.80 ticks/sec)


Incumbent solution written to file '/tmp/tmphzKtsU.cplex.sol'.
